12 32 6 10
18 3 10 17 19 18 4 11 6 16 4 3 14 7 20 9 9 3 4 18 18 20 8 14 10 18 11 16 13 5 18 18 
9.98 14.18 3.87 9.65 15.92 9.59 13.99 1.11 3.7 9.59 3.01 0.25 2.27 0.79 15.08 4.61 7.89 14 8.7 9.32 8.49 5.08 8.48 14.62 11.51 7.52 2.22 5.57 11.32 1.86 13.87 7.12 
8.97 7.38 5.96 8.19 14.51 4.64 13.03 11.34 7.05 2.33 1.38 8.59 7.63 3.49 1.79 2.17 5.94 1.53 1.17 3.14 11.65 7.79 12.41 9.46 13.42 2.16 8.52 7.18 11.97 8.13 6.73 1.35 
9.92 12.36 4.08 7.78 7.79 0.61 4.21 0.98 9.94 7.19 15.68 3.94 4.72 7.33 8.55 14.49 4.47 8.53 11.03 13.78 1.04 6.65 10.46 12.64 15.54 9.86 11.44 13.28 0.13 4.88 1.85 9.73 
6.16 14.22 11.6 8.93 15.64 6.15 0.04 15.46 3.14 1.17 1.84 2.19 8.62 13.95 4.91 6.35 14.35 1.37 15.31 2.36 5.48 12.12 6.06 15.3 4.61 4.97 4.46 11.46 0.66 5.02 10.64 5.22 
10.09 10.11 7.3 8.5 3.75 12.68 5.42 10.79 6.56 8.87 13.54 12.61 9.87 13.26 11.39 11.65 6.29 13.46 8.57 2.56 4.53 3.09 4.45 15.03 9 11.97 14.7 1.97 0.75 10.73 14.61 6.01 
10.02 14.1 4.51 1.42 13.58 7.74 11.39 1.2 4.54 1.17 9.51 5.61 15.47 15.68 9.17 12.29 9.9 9.63 5.48 1.88 13.71 1.59 14.46 13.11 8.03 14.35 6.28 5.86 3.52 11.15 2.85 8.97 
8 8 8 8 8 8 8 8 8 8 8 8 8 8 8 8 8 8 8 8 8 8 8 8 8 8 8 8 8 8 8 8 
1.14 12.8 12.69 1.96 11.94 4.97 4.56 1.63 5.81 3.5 6.97 13.78 11.2 10.2 14.78 11.43 14.96 15.83 7.21 7.94 4.06 15.82 6.22 4.78 0.11 10.79 13 3.83 9.82 4.83 6.54 2.14 
15.23 0.42 10.58 14.17 5.87 3.97 5.97 9.09 15.02 5.11 8.65 12.74 11.27 2.26 14.27 9.11 5.53 1.12 2.85 1.03 3.92 13.49 3.7 9.54 15.87 2.1 9.07 11.64 1.38 4.78 14.06 14.57 
8.91 0.21 4.85 11.46 13.73 6.06 6.36 6.7 7.75 15.37 4.49 5.55 4.12 13.62 13.33 8.76 13.32 12.45 14.28 6.97 14.23 11.52 9.27 1.57 4.21 8.75 7.85 14.01 14.47 11.61 4.6 9.52 
1.86 10.82 7.16 14.89 11.03 4.28 4.32 5.07 11.52 10.16 3.64 1.98 2.31 1.38 10.46 1.11 8.54 5.62 10.41 7 9.26 10.91 2.12 1.46 0.35 9.13 13.35 10.08 9.73 9.29 7.23 1.68 
10.33 14.81 11.14 10.78 12.37 11.26 11.24 4.6 9.18 6.47 14.31 3.34 4.14 10.98 10.88 7.09 0.62 12.06 1.47 10.46 14.95 8.51 12.75 10.23 6.56 9.94 8.14 12.63 14.15 12.19 10.93 13.55 
1 1 1 1 1 1 1 1 1 1 1 1 1 1 1 1 1 1 1 1 1 1 1 1 1 1 1 1 1 1 1 1 
1 1 1 1 1 1 1 1 1 1 1 1 1 1 1 1 1 1 1 1 1 1 1 1 1 1 1 1 1 1 1 1 
1 1 1 1 1 1 1 1 1 1 1 1 1 1 1 1 1 1 1 1 1 1 1 1 1 1 1 1 1 1 1 1 
1 1 1 1 1 1 1 1 1 1 1 1 1 1 1 1 1 1 1 1 1 1 1 1 1 1 1 1 1 1 1 1 
1 1 1 1 1 1 1 1 1 1 1 1 1 1 1 1 1 1 1 1 1 1 1 1 1 1 1 1 1 1 1 1 
1 1 1 1 1 1 1 1 1 1 1 1 1 1 1 1 1 1 1 1 1 1 1 1 1 1 1 1 1 1 1 1 
1 1 1 1 1 1 1 1 1 1 1 1 1 1 1 1 1 1 1 1 1 1 1 1 1 1 1 1 1 1 1 1 
1 1 1 1 1 1 1 1 1 1 1 1 1 1 1 1 1 1 1 1 1 1 1 1 1 1 1 1 1 1 1 1 
1 1 1 1 1 1 1 1 1 1 1 1 1 1 1 1 1 1 1 1 1 1 1 1 1 1 1 1 1 1 1 1 
1 1 1 1 1 1 1 1 1 1 1 1 1 1 1 1 1 1 1 1 1 1 1 1 1 1 1 1 1 1 1 1 
1 1 1 1 1 1 1 1 1 1 1 1 1 1 1 1 1 1 1 1 1 1 1 1 1 1 1 1 1 1 1 1 
1 1 1 1 1 1 1 1 1 1 1 1 1 1 1 1 1 1 1 1 1 1 1 1 1 1 1 1 1 1 1 1 
0.01 0.01 0.01 0.01 0.01 0.01 0.01 0.01 0.01 0.01 0.01 0.01 0.01 0.01 0.01 0.01 0.01 0.01 0.01 0.01 0.01 0.01 0.01 0.01 0.01 0.01 0.01 0.01 0.01 0.01 0.01 0.01 
0.02 0.02 0.02 0.02 0.02 0.02 0.02 0.02 0.02 0.02 0.02 0.02 0.02 0.02 0.02 0.02 0.02 0.02 0.02 0.02 0.02 0.02 0.02 0.02 0.02 0.02 0.02 0.02 0.02 0.02 0.02 0.02 
0.03 0.03 0.03 0.03 0.03 0.03 0.03 0.03 0.03 0.03 0.03 0.03 0.03 0.03 0.03 0.03 0.03 0.03 0.03 0.03 0.03 0.03 0.03 0.03 0.03 0.03 0.03 0.03 0.03 0.03 0.03 0.03 
0.04 0.04 0.04 0.04 0.04 0.04 0.04 0.04 0.04 0.04 0.04 0.04 0.04 0.04 0.04 0.04 0.04 0.04 0.04 0.04 0.04 0.04 0.04 0.04 0.04 0.04 0.04 0.04 0.04 0.04 0.04 0.04 
0.05 0.05 0.05 0.05 0.05 0.05 0.05 0.05 0.05 0.05 0.05 0.05 0.05 0.05 0.05 0.05 0.05 0.05 0.05 0.05 0.05 0.05 0.05 0.05 0.05 0.05 0.05 0.05 0.05 0.05 0.05 0.05 
0.06 0.06 0.06 0.06 0.06 0.06 0.06 0.06 0.06 0.06 0.06 0.06 0.06 0.06 0.06 0.06 0.06 0.06 0.06 0.06 0.06 0.06 0.06 0.06 0.06 0.06 0.06 0.06 0.06 0.06 0.06 0.06 
0.07 0.07 0.07 0.07 0.07 0.07 0.07 0.07 0.07 0.07 0.07 0.07 0.07 0.07 0.07 0.07 0.07 0.07 0.07 0.07 0.07 0.07 0.07 0.07 0.07 0.07 0.07 0.07 0.07 0.07 0.07 0.07 
0.2 0.2 0.2 0.2 0.2 0.2 0.2 0.2 0.2 0.2 0.2 0.2 0.2 0.2 0.2 0.2 0.2 0.2 0.2 0.2 0.2 0.2 0.2 0.2 0.2 0.2 0.2 0.2 0.2 0.2 0.2 0.2 
0.4 0.4 0.4 0.4 0.4 0.4 0.4 0.4 0.4 0.4 0.4 0.4 0.4 0.4 0.4 0.4 0.4 0.4 0.4 0.4 0.4 0.4 0.4 0.4 0.4 0.4 0.4 0.4 0.4 0.4 0.4 0.4 
0.6 0.6 0.6 0.6 0.6 0.6 0.6 0.6 0.6 0.6 0.6 0.6 0.6 0.6 0.6 0.6 0.6 0.6 0.6 0.6 0.6 0.6 0.6 0.6 0.6 0.6 0.6 0.6 0.6 0.6 0.6 0.6 
0.8 0.8 0.8 0.8 0.8 0.8 0.8 0.8 0.8 0.8 0.8 0.8 0.8 0.8 0.8 0.8 0.8 0.8 0.8 0.8 0.8 0.8 0.8 0.8 0.8 0.8 0.8 0.8 0.8 0.8 0.8 0.8 
1 1 1 1 1 1 1 1 1 1 1 1 1 1 1 1 1 1 1 1 1 1 1 1 1 1 1 1 1 1 1 1 
